# 90165
param k := 6;
param n := 50;
param s := 1;
set E :=  (0,16) (1,5) (1,13) (1,20) (2,5) (2,39) (2,48) (3,14) (3,18) (3,40) (4,14) (4,24) (4,33) (4,44) (5,19) (5,37) (5,42) (5,47) (6,25) (6,40) (7,28) (7,34) (7,46) (8,29) (9,31) (9,40) (10,13) (10,28) (10,44) (11,15) (11,29) (11,33) (12,20) (12,30) (12,43) (13,48) (14,43) (14,46) (14,49) (15,30) (15,34) (16,37) (17,23) (17,35) (19,31) (19,44) (21,28) (21,45) (22,43) (25,32) (25,48) (26,44) (26,45) (27,31) (30,35) (30,36) (31,35) (31,49) (32,41) (36,47) (37,48) (38,40) (38,48) (41,42) (42,47) (42,49) (45,47);